2
150 150
94
21 89 1
21 95 1
22 91 1
22 92 1
22 95 1
23 88 1
23 91 1
23 95 1
24 89 1
24 91 1
26 88 1
26 90 1
28 83 1
28 84 1
28 85 2
29 84 1
32 87 1
35 76 1
35 84 1
36 78 2
37 74 1
38 72 2
38 73 1
38 78 1
39 73 1
40 75 1
40 77 1
42 75 1
43 68 1
45 65 1
45 68 1
45 70 1
47 68 1
48 66 1
48 71 1
49 68 1
49 69 1
50 63 1
52 65 1
53 60 1
53 63 1
54 63 1
54 64 1
54 65 1
56 58 1
56 59 1
56 62 1
57 55 1
57 58 1
57 60 1
57 62 1
61 52 1
62 50 1
62 54 1
65 46 1
65 49 1
66 44 1
66 49 1
67 43 1
67 52 1
68 43 1
68 49 1
73 39 1
73 40 1
74 44 1
77 37 1
77 38 2
78 37 1
78 38 1
80 33 1
80 39 1
81 32 1
81 33 1
82 32 2
83 35 1
84 29 1
84 32 1
85 26 1
85 29 1
86 30 1
87 30 1
87 32 1
89 26 1
89 28 1
89 29 2
91 20 1
91 25 1
93 19 1
93 22 1
94 18 1
95 22 1
97 18 1
97 19 1
99 17 1
